NAME          HOTMIX3
ROWS
 G  N
 G  P
 G  K
 G  S
 G  ZN
 G  WATR
 G  DEN
 G  32F
 G  32FK
 G  77F
 G  77FK
 E  HCAP
 E  HSOL
 E  HREA
 G  MINT
 G  MAXT
 G  MAXWATER
 G  MAXEVAP
 G  MINA
 G  MAXA
 E  WT
 N  COST
 N  PRICE
COLUMNS
*234567890123456789012345678901234567890123456789012345678901
    HOTWATER  WATR          1.000000   DEN           0.119760   
    HOTWATER  32F          -1.000000   32FK         -1.000000   
    HOTWATER  77F          -1.000000   77FK         -1.000000   
    HOTWATER  HCAP          1.000000   HREA          1.260000   
    HOTWATER  WT            1.000000   COST          0.250000   
    HOTWATER  PRICE         0.000000   SCALE      2000.000000   
    WATER     WATR          1.000000   DEN           0.119947   
    WATER     HCAP          1.000000   HSOL          0.400000   
    WATER     WT            1.000000   COST          0.100000   
    WATER     PRICE         0.100000   SCALE      2000.000000   
    I005400   P             0.540000   WATR          0.250000   
    I005400   DEN           0.075919   32F           0.861042   
    I005400   32FK          0.861042   77F           0.829268   
    I005400   77FK          0.829268   HCAP          0.860000   
    I005400   HREA          2.662000   MINA         -0.219000   
    I005400   MAXA         -0.219000   WT            1.000000   
    I005400   COST        150.000000   PRICE       170.000000   
    I005400   SCALE      2000.000000   
    I93SACID  S             0.320000   WATR          0.070000   
    I93SACID  DEN           0.065789   32F           1.933750   
    I93SACID  32FK         16.547200   77F           1.801200   
    I93SACID  77FK         13.761900   HCAP          0.360000   
    I93SACID  HREA          8.500000   MINA         -0.311000   
    I93SACID  MAXA         -0.311000   WT            1.000000   
    I93SACID  COST         80.000000   PRICE       100.000000   
    I93SACID  SCALE      2000.000000   
    I200000   N             0.200000   WATR          0.757000   
    I200000   DEN           0.131579   32F          -0.757000   
    I200000   32FK         -0.757000   77F          -0.757000   
    I200000   77FK         -0.757000   HCAP          0.990000   
    I200000   HREA          5.164000   MINA          0.243000   
    I200000   MAXA          0.243000   WT            1.000000   
    I200000   COST         80.000000   PRICE        85.000000   
    I200000   SCALE      2000.000000   
    I460000   N             0.460000   DEN           0.089513   
    I460000   32F           1.421310   32FK          1.421310   
    I460000   77F           0.838235   77FK          0.838235   
    I460000   HCAP          0.320000   HSOL          2.160000   
    I460000   WT            1.000000   COST        160.000000   
    I460000   PRICE       200.000000   SCALE      2000.000000   
    I280000   N             0.280000   WATR          0.302000   
    I280000   DEN           0.093712   32F          -0.127500   
    I280000   32FK          0.461780   77F          -0.257920   
    I280000   77FK          0.132198   HCAP          0.554000   
    I280000   WT            1.000000   COST         90.000000   
    I280000   PRICE       112.500000   SCALE      2000.000000   
    I103400   N             0.100000   P             0.340000   
    I103400   WATR          0.423000   DEN           0.085470   
    I103400   77F          -0.104037   77FK         -0.104037   
    I103400   HCAP          0.578000   WT            1.000000   
    I103400   COST        190.000000   PRICE       237.500000   
    I103400   SCALE      2000.000000   
    I000062   K             0.624000   DEN           0.059974   
    I000062   32F           3.599820   32FK          3.599820   
    I000062   77F           2.813880   77FK          2.813880   
    I000062   HCAP          0.162000   HSOL          2.120000   
    I000062   WT            1.000000   COST         90.000000   
    I000062   PRICE       112.500000   SCALE      2000.000000   
    I120000   N             0.120000   S             0.260000   
    I120000   WATR          0.400000   DEN           0.089710   
    I120000   32F           0.005025   32FK          0.005025   
    I120000   77F          -0.104478   77FK         -0.104478   
    I120000   HCAP          0.440000   WT            1.000000   
    I120000   COST        135.000000   PRICE       168.750000   
    I120000   SCALE      2000.000000   
    I100000   N             0.100000   S             0.050000   
    I100000   ZN            0.100000   WATR          0.630000   
    I100000   DEN           0.094688   77F          -0.119048   
    I100000   77FK         -0.119048   HCAP          0.740000   
    I100000   WT            1.000000   COST        190.000000   
    I100000   PRICE       237.500000   SCALE      2000.000000   
    I000025   K             0.250000   S             0.170000   
    I000025   WATR          0.510000   DEN           0.081967   
    I000025   32F          -0.014085   32FK         -0.014085   
    I000025   77F          -0.195402   77FK         -0.195402   
    I000025   HCAP          0.600000   WT            1.000000   
    I000025   COST        500.000000   PRICE       625.000000   
    I000025   SCALE      2000.000000   
    LASSO     WATR          0.549000   DEN           0.112360   
    LASSO     WT            1.000000   COST          7.500000   
    LASSO     PRICE         9.147500   SCALE         2.225000   
    SQUADRON  WATR          0.743630   DEN           0.113895   
    SQUADRON  WT            1.000000   COST          4.750000   
    SQUADRON  PRICE         5.792500   SCALE         1.097500   
    EVAP      WATR         -1.000000   DEN          -0.119947   
    EVAP      32F           1.000000   32FK          1.000000   
    EVAP      77F           1.000000   77FK          1.000000   
    EVAP      HCAP         -1.000000   HSOL         -0.400000   
    EVAP      MAXWATER      1.000000   MAXEVAP      -1.000000   
    EVAP      WT           -1.000000   COST         25.000000   
    EVAP      PRICE         0.000000   SCALE      2000.000000   
    HEATCAP   HCAP         -1.000000   MINT          0.390000   
    HEATCAP   MAXT          0.800000   COST          0.000000   
    HEATCAP   PRICE         0.000000   SCALE         1.000000   
    HEATSOL   HSOL         -2.000000   MINT         -1.000000   
    HEATSOL   MAXT          1.000000   COST          0.000000   
    HEATSOL   PRICE         0.000000   SCALE         1.000000   
    HEATREA   HREA         -2.000000   MINT          1.000000   
    HEATREA   MAXT         -1.000000   COST          0.000000   
    HEATREA   PRICE         0.000000   SCALE         1.000000   
    PRODUCT   WATR         -0.020000   MAXWATER      0.100000   
    PRODUCT   MAXEVAP       0.100000   WT           -1.000000   
    PRODUCT   COST          0.000000   PRICE         0.000000   
    PRODUCT   SCALE         1.000000   
*234567890123456789012345678901234567890123456789012345678901
RHS
RANGES
ENDATA
